n = 40;
m = 69;
w = [2,4,10,5,6,6,9,7,5,4,4,3,8,2,9,8,10,4,5,1,8,2,2,2,7,2,9,4,5,3,1,3,2,2,5,4,2,2,5,2,9,8,9,4,5,3,1,5,6,10,7,2,8,3,8,6,7,10,9,9,7,2,9,10,8,2,2,6,8];
edges = array2d(1..m, 1..2, [1,11,1,22,1,34,1,37,2,20,2,37,3,12,3,14,3,24,3,31,3,35,3,37,4,6,4,13,4,27,4,40,5,8,5,25,5,26,6,29,7,28,7,39,8,13,8,17,8,32,8,34,9,19,9,27,9,30,10,11,11,12,12,34,13,14,13,24,13,28,13,29,13,31,13,35,13,39,13,40,14,26,14,31,14,33,14,34,15,18,15,26,16,39,17,18,17,34,17,35,19,20,19,24,19,26,19,27,19,40,23,24,23,28,25,27,26,38,27,29,27,38,28,29,29,31,30,36,31,32,33,40,36,37,38,39,39,40]);
